
  17    4
  10   10   10   10

   0   0   0   0   0   7 2 3 5 6 7 9 11 
  10  10  10  10  10   2 8 4 
   5  10  10  10  10   3 12 10 8 
   7  10  10  10  10   3 16 12 10 
   3  10  10  10  10   3 16 12 10 
   3  10  10  10  10   3 16 12 10 
   7  10  10  10  10   4 16 15 13 12 
  10  10  10  10  10   4 16 15 14 13 
   2  10  10  10  10   1 10 
   6  10  10  10  10   3 15 14 13 
   8  10  10  10  10   2 16 13 
   8  10  10  10  10   1 14 
   7  10  10  10  10   1 17
   5  10  10  10  10   1 17
  10  10  10  10  10   1 17
   5  10  10  10  10   1 17
   0   0   0   0   0   0 
